121
0 93 23 98 100 102 49 55 22 101 
17 71 65 1 10 33 116 41 18 26 
51 118 9 7 53 3 21 95 15 24 
111 83 60 81 62 30 64 78 120 72 
85 20 34 56 44 2 67 37 50 115 
104 91 5 76 99 97 87 63 38 86 
107 82 54 59 61 14 35 114 39 58 
112 13 12 43 36 19 32 96 27 31 
42 66 16 94 69 28 75 110 29 105 
80 79 57 8 4 89 45 25 6 92 
113 90 48 74 103 108 73 109 11 52 
40 77 106 68 88 46 119 84 70 47 
117 
